nNurses = 125;
nHours = 33;
minHours = 5;
maxHours = 19;
maxConsec = 13;
maxPresence = 32;
demand = [18, 23, 25, 29, 28, 30, 33, 31, 31, 31, 31, 31, 32, 32, 36, 34, 31, 35, 36, 41, 44, 45, 50, 45, 48, 48, 50, 46, 42, 40, 40, 38, 34];
